p cnf 7230 17
-4028 -6395 -6517 0
-4002 -6399 -6515 0
-6257 -6385 -6513 0
4028 -6518 0
4002 -6516 0
6257 -6514 0
6517 6518 0
6515 6516 0
6513 6514 0
6395 -6518 0
6399 -6516 0
6385 -6514 0
-6269 -6397 6520 0
6511 6512 0
-6511 -6512 0
6397 -6520 0
6269 -6520 0
